submitit INFO (2023-04-30 19:21:47,027) - Starting with JobEnvironment(job_id=27536, hostname=cpunode25, local_rank=0(5), node=0(1), global_rank=0(5))
submitit INFO (2023-04-30 19:21:47,027) - Loading pickle: /h/30/pashootan/Matrix-Mult-CP/src/../logs/2x2x2_6_Apr30_19:21:44/27536_submitted.pkl
 ! --------------------------------------------------- CP Optimizer 22.1.1.0 --
 ! Satisfiability problem - 72 variables, 117 constraints
 ! TimeLimit            = 7200
 ! Workers              = 8
 ! LogPeriod            = 10000000
 ! RandomSeed           = 3875
 ! Initial process time : 0.01s (0.01s extraction + 0.00s propagation)
 !  . Log search space  : 107.1 (before), 107.1 (after)
 !  . Memory usage      : 495.1 kB (before), 495.1 kB (after)
 ! Using parallel search with 8 workers.
 ! ----------------------------------------------------------------------------
 !               Branches  Non-fixed    W       Branch decision
                   10000k          6    1   F     0  = U4_2
                   10000k          6    6        -1  = U1_1
                   10000k          6    4   F    -1 != V4_2
                   10000k          6    2         1  = U5_2
                   10000k          6    5         1 != V3_0
                   10000k          6    7        -1  = W2_1
                   10000k          6    3         1  = W4_1
                   10000k          6    8         0 != V2_1
                   20000k          6    2   F    -1 != U2_2
                   20000k          6    5   F     0  = V1_0
                   20000k          7    1   F     1  = V5_0
                   20000k          6    4         1  = V2_2
                   20000k          6    6         1  = U1_2
                   20000k          6    7   F    -1  = V2_2
                   20000k          6    8         1  = V5_0
                   20000k          9    3   F    -1 != V4_1
                   30000k          6    1   F    -1  = V5_2
                   30000k          6    4   F    -1  = U3_1
                   30000k          5    2   F     0  = V3_3
                   30000k          6    6   F     1  = V0_2
 ! Time = 340.17s, Average fail depth = 18, Memory usage = 143.5 MB
 !               Branches  Non-fixed    W       Branch decision
                   30000k          6    5         1  = U3_3
                   30000k          7    7   F     1  = V5_2
                   30000k          6    8         0  = U4_1
                   30000k          6    3   F    -1 != V1_1
 ! ----------------------------------------------------------------------------
 ! Search completed, model has no solution.
 ! ----------------------------------------------------------------------------
 ! Number of branches     : 316292395
 ! Number of fails        : 156047849
 ! Total memory usage     : 193.1 MB (193.1 MB CP Optimizer + 0.0 MB Concert)
 ! Time spent in solve    : 453.33s (453.33s engine + 0.01s extraction)
 ! Search speed (br. / s) : 697724.3
 ! ----------------------------------------------------------------------------
Infeasible
Saving stats to: /h/30/pashootan/Matrix-Mult-CP/logs/2x2x2_6_Apr30_19:21:44/27536_0_stats.csv
submitit INFO (2023-04-30 19:29:20,908) - Job completed successfully
